p cnf 955 2449
51 -689 -1 0
-51 689 0
-51 1 0
52 -51 -3 0
-52 51 0
-52 3 0
53 -5 -690 0
-53 5 0
-53 690 0
54 -53 -6 0
-54 53 0
-54 6 0
55 -691 -692 0
-55 691 0
-55 692 0
56 -693 -7 0
-56 693 0
-56 7 0
57 -56 -694 0
-57 56 0
-57 694 0
58 -695 -55 0
-58 695 0
-58 55 0
59 -11 -696 0
-59 11 0
-59 696 0
60 -59 -9 0
-60 59 0
-60 9 0
61 -697 -58 0
-61 697 0
-61 58 0
62 -698 -696 0
-62 698 0
-62 696 0
63 -62 -699 0
-63 62 0
-63 699 0
64 -700 -61 0
-64 700 0
-64 61 0
65 -701 -14 0
-65 701 0
-65 14 0
66 -65 -16 0
-66 65 0
-66 16 0
67 -702 -64 0
-67 702 0
-67 64 0
68 -703 -17 0
-68 703 0
-68 17 0
69 -68 -704 0
-69 68 0
-69 704 0
70 -705 -67 0
-70 705 0
-70 67 0
71 -706 -690 0
-71 706 0
-71 690 0
72 -71 -20 0
-72 71 0
-72 20 0
73 -707 -70 0
-73 707 0
-73 70 0
74 -21 -696 0
-74 21 0
-74 696 0
75 -74 -708 0
-75 74 0
-75 708 0
76 -709 -73 0
-76 709 0
-76 73 0
77 -23 -694 0
-77 23 0
-77 694 0
78 -77 -24 0
-78 77 0
-78 24 0
79 -710 -76 0
-79 710 0
-79 76 0
80 -25 -15 0
-80 25 0
-80 15 0
81 -80 -698 0
-81 80 0
-81 698 0
82 -711 -79 0
-82 711 0
-82 79 0
83 -26 -14 0
-83 26 0
-83 14 0
84 -83 -703 0
-84 83 0
-84 703 0
85 -712 -82 0
-85 712 0
-85 82 0
86 -713 -696 0
-86 713 0
-86 696 0
87 -86 -6 0
-87 86 0
-87 6 0
88 -714 -85 0
-88 714 0
-88 85 0
89 -28 -696 0
-89 28 0
-89 696 0
90 -89 -715 0
-90 89 0
-90 715 0
91 -716 -88 0
-91 716 0
-91 88 0
92 -23 -717 0
-92 23 0
-92 717 0
93 -92 -30 0
-93 92 0
-93 30 0
94 -718 -91 0
-94 718 0
-94 91 0
95 -719 -10 0
-95 719 0
-95 10 0
96 -95 -6 0
-96 95 0
-96 6 0
97 -720 -94 0
-97 720 0
-97 94 0
98 -713 -706 0
-98 713 0
-98 706 0
99 -98 -30 0
-99 98 0
-99 30 0
100 -721 -97 0
-100 721 0
-100 97 0
101 -722 -723 0
-101 722 0
-101 723 0
102 -101 -724 0
-102 101 0
-102 724 0
103 -725 -100 0
-103 725 0
-103 100 0
104 -726 -15 0
-104 726 0
-104 15 0
105 -104 -727 0
-105 104 0
-105 727 0
106 -728 -103 0
-106 728 0
-106 103 0
107 -36 -1 0
-107 36 0
-107 1 0
108 -107 -715 0
-108 107 0
-108 715 0
109 -729 -106 0
-109 729 0
-109 106 0
110 -719 -730 0
-110 719 0
-110 730 0
111 -110 -731 0
-111 110 0
-111 731 0
112 -732 -109 0
-112 732 0
-112 109 0
113 -37 -15 0
-113 37 0
-113 15 0
114 -113 -33 0
-114 113 0
-114 33 0
115 -733 -112 0
-115 733 0
-115 112 0
116 -734 -5 0
-116 734 0
-116 5 0
117 -116 -39 0
-117 116 0
-117 39 0
118 -735 -115 0
-118 735 0
-118 115 0
119 -98 -734 0
-119 98 0
-119 734 0
120 -736 -118 0
-120 736 0
-120 118 0
121 -737 -8 0
-121 737 0
-121 8 0
122 -121 -40 0
-122 121 0
-122 40 0
123 -738 -120 0
-123 738 0
-123 120 0
124 -80 -41 0
-124 80 0
-124 41 0
125 -739 -123 0
-125 739 0
-125 123 0
126 -719 -2 0
-126 719 0
-126 2 0
127 -126 -740 0
-127 126 0
-127 740 0
128 -741 -125 0
-128 741 0
-128 125 0
129 -44 -742 0
-129 44 0
-129 742 0
130 -129 -8 0
-130 129 0
-130 8 0
131 -743 -128 0
-131 743 0
-131 128 0
132 -17 -706 0
-132 17 0
-132 706 0
133 -132 -41 0
-133 132 0
-133 41 0
134 -744 -131 0
-134 744 0
-134 131 0
135 -17 -745 0
-135 17 0
-135 745 0
136 -135 -746 0
-136 135 0
-136 746 0
137 -747 -134 0
-137 747 0
-137 134 0
138 -77 -30 0
-138 77 0
-138 30 0
139 -748 -137 0
-139 748 0
-139 137 0
140 -77 -20 0
-140 77 0
-140 20 0
141 -749 -139 0
-141 749 0
-141 139 0
142 -742 -731 0
-142 742 0
-142 731 0
143 -142 -750 0
-143 142 0
-143 750 0
144 -751 -141 0
-144 751 0
-144 141 0
145 -717 -11 0
-145 717 0
-145 11 0
146 -145 -752 0
-146 145 0
-146 752 0
147 -753 -144 0
-147 753 0
-147 144 0
148 -44 -18 0
-148 44 0
-148 18 0
149 -148 -20 0
-149 148 0
-149 20 0
150 -754 -147 0
-150 754 0
-150 147 0
151 -46 -755 0
-151 46 0
-151 755 0
152 -151 -715 0
-152 151 0
-152 715 0
153 -756 -150 0
-153 756 0
-153 150 0
154 -734 -723 0
-154 734 0
-154 723 0
155 -154 -757 0
-155 154 0
-155 757 0
156 -758 -153 0
-156 758 0
-156 153 0
157 -713 -698 0
-157 713 0
-157 698 0
158 -157 -37 0
-158 157 0
-158 37 0
159 -759 -156 0
-159 759 0
-159 156 0
160 -760 -7 0
-160 760 0
-160 7 0
161 -160 -752 0
-161 160 0
-161 752 0
162 -761 -159 0
-162 761 0
-162 159 0
163 -9 -690 0
-163 9 0
-163 690 0
164 -163 -40 0
-164 163 0
-164 40 0
165 -762 -162 0
-165 762 0
-165 162 0
166 -715 -706 0
-166 715 0
-166 706 0
167 -166 -20 0
-167 166 0
-167 20 0
168 -763 -165 0
-168 763 0
-168 165 0
169 -44 -15 0
-169 44 0
-169 15 0
170 -169 -33 0
-170 169 0
-170 33 0
171 -764 -168 0
-171 764 0
-171 168 0
172 -765 -21 0
-172 765 0
-172 21 0
173 -172 -724 0
-173 172 0
-173 724 0
174 -766 -171 0
-174 766 0
-174 171 0
175 -27 -752 0
-175 27 0
-175 752 0
176 -175 -767 0
-176 175 0
-176 767 0
177 -768 -174 0
-177 768 0
-177 174 0
178 -13 -769 0
-178 13 0
-178 769 0
179 -178 -33 0
-179 178 0
-179 33 0
180 -770 -177 0
-180 770 0
-180 177 0
181 -771 -36 0
-181 771 0
-181 36 0
182 -181 -693 0
-182 181 0
-182 693 0
183 -772 -180 0
-183 772 0
-183 180 0
184 -17 -769 0
-184 17 0
-184 769 0
185 -184 -33 0
-185 184 0
-185 33 0
186 -773 -183 0
-186 773 0
-186 183 0
187 -715 -704 0
-187 715 0
-187 704 0
188 -187 -727 0
-188 187 0
-188 727 0
189 -774 -186 0
-189 774 0
-189 186 0
190 -746 -730 0
-190 746 0
-190 730 0
191 -190 -13 0
-191 190 0
-191 13 0
192 -775 -189 0
-192 775 0
-192 189 0
193 -17 -1 0
-193 17 0
-193 1 0
194 -193 -765 0
-194 193 0
-194 765 0
195 -776 -192 0
-195 776 0
-195 192 0
196 -706 -730 0
-196 706 0
-196 730 0
197 -196 -24 0
-197 196 0
-197 24 0
198 -777 -195 0
-198 777 0
-198 195 0
199 -778 -11 0
-199 778 0
-199 11 0
200 -199 -45 0
-200 199 0
-200 45 0
201 -779 -198 0
-201 779 0
-201 198 0
202 -730 -693 0
-202 730 0
-202 693 0
203 -202 -46 0
-203 202 0
-203 46 0
204 -780 -201 0
-204 780 0
-204 201 0
205 -50 -717 0
-205 50 0
-205 717 0
206 -205 -737 0
-206 205 0
-206 737 0
207 -781 -204 0
-207 781 0
-207 204 0
208 -44 -708 0
-208 44 0
-208 708 0
209 -208 -38 0
-209 208 0
-209 38 0
210 -782 -207 0
-210 782 0
-210 207 0
211 -740 -769 0
-211 740 0
-211 769 0
212 -211 -13 0
-212 211 0
-212 13 0
213 -783 -210 0
-213 783 0
-213 210 0
214 -693 -6 0
-214 693 0
-214 6 0
215 -214 -39 0
-215 214 0
-215 39 0
216 -784 -213 0
-216 784 0
-216 213 0
217 -43 -778 0
-217 43 0
-217 778 0
218 -217 -24 0
-218 217 0
-218 24 0
219 -785 -216 0
-219 785 0
-219 216 0
220 -771 -28 0
-220 771 0
-220 28 0
221 -220 -36 0
-221 220 0
-221 36 0
222 -786 -219 0
-222 786 0
-222 219 0
223 -9 -731 0
-223 9 0
-223 731 0
224 -223 -787 0
-224 223 0
-224 787 0
225 -788 -222 0
-225 788 0
-225 222 0
226 -789 -701 0
-226 789 0
-226 701 0
227 -226 -752 0
-227 226 0
-227 752 0
228 -790 -225 0
-228 790 0
-228 225 0
229 -734 -1 0
-229 734 0
-229 1 0
230 -229 -5 0
-230 229 0
-230 5 0
231 -791 -228 0
-231 791 0
-231 228 0
232 -35 -723 0
-232 35 0
-232 723 0
233 -232 -789 0
-233 232 0
-233 789 0
234 -792 -231 0
-234 792 0
-234 231 0
235 -21 -793 0
-235 21 0
-235 793 0
236 -235 -40 0
-236 235 0
-236 40 0
237 -794 -234 0
-237 794 0
-237 234 0
238 -698 -690 0
-238 698 0
-238 690 0
239 -238 -36 0
-239 238 0
-239 36 0
240 -795 -237 0
-240 795 0
-240 237 0
241 -38 -713 0
-241 38 0
-241 713 0
242 -241 -29 0
-242 241 0
-242 29 0
243 -796 -240 0
-243 796 0
-243 240 0
244 -43 -689 0
-244 43 0
-244 689 0
245 -244 -8 0
-245 244 0
-245 8 0
246 -797 -243 0
-246 797 0
-246 243 0
247 -713 -23 0
-247 713 0
-247 23 0
248 -247 -798 0
-248 247 0
-248 798 0
249 -799 -246 0
-249 799 0
-249 246 0
250 -37 -698 0
-250 37 0
-250 698 0
251 -250 -48 0
-251 250 0
-251 48 0
252 -800 -249 0
-252 800 0
-252 249 0
253 -723 -13 0
-253 723 0
-253 13 0
254 -253 -47 0
-254 253 0
-254 47 0
255 -801 -252 0
-255 801 0
-255 252 0
256 -49 -4 0
-256 49 0
-256 4 0
257 -256 -30 0
-257 256 0
-257 30 0
258 -802 -255 0
-258 802 0
-258 255 0
259 -59 -39 0
-259 59 0
-259 39 0
260 -803 -258 0
-260 803 0
-260 258 0
261 -48 -722 0
-261 48 0
-261 722 0
262 -261 -9 0
-262 261 0
-262 9 0
263 -804 -260 0
-263 804 0
-263 260 0
264 -23 -778 0
-264 23 0
-264 778 0
265 -264 -805 0
-265 264 0
-265 805 0
266 -806 -263 0
-266 806 0
-266 263 0
267 -28 -21 0
-267 28 0
-267 21 0
268 -267 -34 0
-268 267 0
-268 34 0
269 -807 -266 0
-269 807 0
-269 266 0
270 -43 -745 0
-270 43 0
-270 745 0
271 -270 -42 0
-271 270 0
-271 42 0
272 -808 -269 0
-272 808 0
-272 269 0
273 -47 -24 0
-273 47 0
-273 24 0
274 -273 -724 0
-274 273 0
-274 724 0
275 -809 -272 0
-275 809 0
-275 272 0
276 -23 -3 0
-276 23 0
-276 3 0
277 -276 -18 0
-277 276 0
-277 18 0
278 -810 -275 0
-278 810 0
-278 275 0
279 -80 -703 0
-279 80 0
-279 703 0
280 -811 -278 0
-280 811 0
-280 278 0
281 -698 -693 0
-281 698 0
-281 693 0
282 -281 -18 0
-282 281 0
-282 18 0
283 -812 -280 0
-283 812 0
-283 280 0
284 -760 -701 0
-284 760 0
-284 701 0
285 -284 -33 0
-285 284 0
-285 33 0
286 -813 -283 0
-286 813 0
-286 283 0
287 -814 -734 0
-287 814 0
-287 734 0
288 -287 -29 0
-288 287 0
-288 29 0
289 -815 -286 0
-289 815 0
-289 286 0
290 -43 -10 0
-290 43 0
-290 10 0
291 -290 -4 0
-291 290 0
-291 4 0
292 -816 -289 0
-292 816 0
-292 289 0
293 -746 -17 0
-293 746 0
-293 17 0
294 -293 -40 0
-294 293 0
-294 40 0
295 -817 -292 0
-295 817 0
-295 292 0
296 -35 -818 0
-296 35 0
-296 818 0
297 -296 -767 0
-297 296 0
-297 767 0
298 -819 -295 0
-298 819 0
-298 295 0
299 -21 -11 0
-299 21 0
-299 11 0
300 -299 -793 0
-300 299 0
-300 793 0
301 -820 -298 0
-301 820 0
-301 298 0
302 -750 -821 0
-302 750 0
-302 821 0
303 -302 -33 0
-303 302 0
-303 33 0
304 -822 -301 0
-304 822 0
-304 301 0
305 -823 -44 0
-305 823 0
-305 44 0
306 -305 -13 0
-306 305 0
-306 13 0
307 -824 -304 0
-307 824 0
-307 304 0
308 -701 -1 0
-308 701 0
-308 1 0
309 -308 -6 0
-309 308 0
-309 6 0
310 -825 -307 0
-310 825 0
-310 307 0
311 -708 -730 0
-311 708 0
-311 730 0
312 -311 -28 0
-312 311 0
-312 28 0
313 -826 -310 0
-313 826 0
-313 310 0
314 -32 -689 0
-314 32 0
-314 689 0
315 -314 -699 0
-315 314 0
-315 699 0
316 -827 -313 0
-316 827 0
-316 313 0
317 -814 -698 0
-317 814 0
-317 698 0
318 -317 -787 0
-318 317 0
-318 787 0
319 -828 -316 0
-319 828 0
-319 316 0
320 -38 -706 0
-320 38 0
-320 706 0
321 -320 -41 0
-321 320 0
-321 41 0
322 -829 -319 0
-322 829 0
-322 319 0
323 -823 -746 0
-323 823 0
-323 746 0
324 -323 -767 0
-324 323 0
-324 767 0
325 -830 -322 0
-325 830 0
-325 322 0
326 -771 -38 0
-326 771 0
-326 38 0
327 -326 -727 0
-327 326 0
-327 727 0
328 -831 -325 0
-328 831 0
-328 325 0
329 -789 -14 0
-329 789 0
-329 14 0
330 -329 -767 0
-330 329 0
-330 767 0
331 -832 -328 0
-331 832 0
-331 328 0
332 -37 -16 0
-332 37 0
-332 16 0
333 -332 -793 0
-333 332 0
-333 793 0
334 -833 -331 0
-334 833 0
-334 331 0
335 -760 -699 0
-335 760 0
-335 699 0
336 -335 -727 0
-336 335 0
-336 727 0
337 -834 -334 0
-337 834 0
-337 334 0
338 -771 -17 0
-338 771 0
-338 17 0
339 -338 -750 0
-339 338 0
-339 750 0
340 -835 -337 0
-340 835 0
-340 337 0
341 -717 -793 0
-341 717 0
-341 793 0
342 -341 -727 0
-342 341 0
-342 727 0
343 -836 -340 0
-343 836 0
-343 340 0
344 -823 -730 0
-344 823 0
-344 730 0
345 -344 -689 0
-345 344 0
-345 689 0
346 -837 -343 0
-346 837 0
-346 343 0
347 -50 -814 0
-347 50 0
-347 814 0
348 -347 -40 0
-348 347 0
-348 40 0
349 -838 -346 0
-349 838 0
-349 346 0
350 -821 -760 0
-350 821 0
-350 760 0
351 -350 -737 0
-351 350 0
-351 737 0
352 -839 -349 0
-352 839 0
-352 349 0
353 -38 -4 0
-353 38 0
-353 4 0
354 -353 -46 0
-354 353 0
-354 46 0
355 -840 -352 0
-355 840 0
-355 352 0
356 -45 -717 0
-356 45 0
-356 717 0
357 -356 -703 0
-357 356 0
-357 703 0
358 -841 -355 0
-358 841 0
-358 355 0
359 -38 -36 0
-359 38 0
-359 36 0
360 -359 -767 0
-360 359 0
-360 767 0
361 -842 -358 0
-361 842 0
-361 358 0
362 -771 -696 0
-362 771 0
-362 696 0
363 -362 -9 0
-363 362 0
-363 9 0
364 -843 -361 0
-364 843 0
-364 361 0
365 -771 -719 0
-365 771 0
-365 719 0
366 -365 -9 0
-366 365 0
-366 9 0
367 -844 -364 0
-367 844 0
-367 364 0
368 -769 -1 0
-368 769 0
-368 1 0
369 -368 -46 0
-369 368 0
-369 46 0
370 -845 -367 0
-370 845 0
-370 367 0
371 -23 -1 0
-371 23 0
-371 1 0
372 -371 -39 0
-372 371 0
-372 39 0
373 -846 -370 0
-373 846 0
-373 370 0
374 -793 -2 0
-374 793 0
-374 2 0
375 -374 -727 0
-375 374 0
-375 727 0
376 -847 -373 0
-376 847 0
-376 373 0
377 -778 -7 0
-377 778 0
-377 7 0
378 -377 -757 0
-378 377 0
-378 757 0
379 -848 -376 0
-379 848 0
-379 376 0
380 -37 -693 0
-380 37 0
-380 693 0
381 -380 -41 0
-381 380 0
-381 41 0
382 -849 -379 0
-382 849 0
-382 379 0
383 -28 -10 0
-383 28 0
-383 10 0
384 -383 -731 0
-384 383 0
-384 731 0
385 -850 -382 0
-385 850 0
-385 382 0
386 -851 -769 0
-386 851 0
-386 769 0
387 -386 -20 0
-387 386 0
-387 20 0
388 -852 -385 0
-388 852 0
-388 385 0
389 -50 -4 0
-389 50 0
-389 4 0
390 -389 -18 0
-390 389 0
-390 18 0
391 -853 -388 0
-391 853 0
-391 388 0
392 -41 -27 0
-392 41 0
-392 27 0
393 -392 -704 0
-393 392 0
-393 704 0
394 -854 -391 0
-394 854 0
-394 391 0
395 -17 -699 0
-395 17 0
-395 699 0
396 -395 -5 0
-396 395 0
-396 5 0
397 -855 -394 0
-397 855 0
-397 394 0
398 -42 -760 0
-398 42 0
-398 760 0
399 -398 -765 0
-399 398 0
-399 765 0
400 -856 -397 0
-400 856 0
-400 397 0
401 -43 -789 0
-401 43 0
-401 789 0
402 -401 -46 0
-402 401 0
-402 46 0
403 -857 -400 0
-403 857 0
-403 400 0
404 -27 -689 0
-404 27 0
-404 689 0
405 -404 -771 0
-405 404 0
-405 771 0
406 -858 -403 0
-406 858 0
-406 403 0
407 -43 -31 0
-407 43 0
-407 31 0
408 -407 -38 0
-408 407 0
-408 38 0
409 -859 -406 0
-409 859 0
-409 406 0
410 -35 -10 0
-410 35 0
-410 10 0
411 -410 -36 0
-411 410 0
-411 36 0
412 -860 -409 0
-412 860 0
-412 409 0
413 -814 -25 0
-413 814 0
-413 25 0
414 -413 -701 0
-414 413 0
-414 701 0
415 -861 -412 0
-415 861 0
-415 412 0
416 -814 -723 0
-416 814 0
-416 723 0
417 -416 -851 0
-417 416 0
-417 851 0
418 -862 -415 0
-418 862 0
-418 415 0
419 -36 -21 0
-419 36 0
-419 21 0
420 -419 -45 0
-420 419 0
-420 45 0
421 -863 -418 0
-421 863 0
-421 418 0
422 -50 -20 0
-422 50 0
-422 20 0
423 -422 -30 0
-423 422 0
-423 30 0
424 -864 -421 0
-424 864 0
-424 421 0
425 -696 -9 0
-425 696 0
-425 9 0
426 -425 -18 0
-426 425 0
-426 18 0
427 -865 -424 0
-427 865 0
-427 424 0
428 -717 -12 0
-428 717 0
-428 12 0
429 -428 -703 0
-429 428 0
-429 703 0
430 -866 -427 0
-430 866 0
-430 427 0
431 -740 -696 0
-431 740 0
-431 696 0
432 -431 -722 0
-432 431 0
-432 722 0
433 -867 -430 0
-433 867 0
-433 430 0
434 -818 -851 0
-434 818 0
-434 851 0
435 -434 -19 0
-435 434 0
-435 19 0
436 -868 -433 0
-436 868 0
-436 433 0
437 -740 -760 0
-437 740 0
-437 760 0
438 -437 -724 0
-438 437 0
-438 724 0
439 -869 -436 0
-439 869 0
-439 436 0
440 -29 -690 0
-440 29 0
-440 690 0
441 -440 -20 0
-441 440 0
-441 20 0
442 -870 -439 0
-442 870 0
-442 439 0
443 -50 -5 0
-443 50 0
-443 5 0
444 -443 -821 0
-444 443 0
-444 821 0
445 -871 -442 0
-445 871 0
-445 442 0
446 -44 -14 0
-446 44 0
-446 14 0
447 -446 -699 0
-447 446 0
-447 699 0
448 -872 -445 0
-448 872 0
-448 445 0
449 -22 -698 0
-449 22 0
-449 698 0
450 -449 -704 0
-450 449 0
-450 704 0
451 -873 -448 0
-451 873 0
-451 448 0
452 -8 -690 0
-452 8 0
-452 690 0
453 -452 -33 0
-453 452 0
-453 33 0
454 -874 -451 0
-454 874 0
-454 451 0
455 -723 -11 0
-455 723 0
-455 11 0
456 -455 -734 0
-456 455 0
-456 734 0
457 -875 -454 0
-457 875 0
-457 454 0
458 -33 -745 0
-458 33 0
-458 745 0
459 -458 -18 0
-459 458 0
-459 18 0
460 -876 -457 0
-460 876 0
-460 457 0
461 -805 -690 0
-461 805 0
-461 690 0
462 -461 -722 0
-462 461 0
-462 722 0
463 -877 -460 0
-463 877 0
-463 460 0
464 -46 -726 0
-464 46 0
-464 726 0
465 -464 -29 0
-465 464 0
-465 29 0
466 -878 -463 0
-466 878 0
-466 463 0
467 -701 -5 0
-467 701 0
-467 5 0
468 -467 -703 0
-468 467 0
-468 703 0
469 -879 -466 0
-469 879 0
-469 466 0
470 -50 -38 0
-470 50 0
-470 38 0
471 -470 -793 0
-471 470 0
-471 793 0
472 -880 -469 0
-472 880 0
-472 469 0
473 -31 -28 0
-473 31 0
-473 28 0
474 -473 -752 0
-474 473 0
-474 752 0
475 -881 -472 0
-475 881 0
-475 472 0
476 -25 -821 0
-476 25 0
-476 821 0
477 -476 -793 0
-477 476 0
-477 793 0
478 -882 -475 0
-478 882 0
-478 475 0
479 -48 -769 0
-479 48 0
-479 769 0
480 -479 -703 0
-480 479 0
-480 703 0
481 -883 -478 0
-481 883 0
-481 478 0
482 -37 -28 0
-482 37 0
-482 28 0
483 -482 -19 0
-483 482 0
-483 19 0
484 -884 -481 0
-484 884 0
-484 481 0
485 -50 -43 0
-485 50 0
-485 43 0
486 -485 -23 0
-486 485 0
-486 23 0
487 -885 -484 0
-487 885 0
-487 484 0
488 -21 -745 0
-488 21 0
-488 745 0
489 -488 -7 0
-489 488 0
-489 7 0
490 -886 -487 0
-490 886 0
-490 487 0
491 -48 -5 0
-491 48 0
-491 5 0
492 -491 -47 0
-492 491 0
-492 47 0
493 -887 -490 0
-493 887 0
-493 490 0
494 -818 -25 0
-494 818 0
-494 25 0
495 -494 -750 0
-495 494 0
-495 750 0
496 -888 -493 0
-496 888 0
-496 493 0
497 -22 -701 0
-497 22 0
-497 701 0
498 -497 -46 0
-498 497 0
-498 46 0
499 -889 -496 0
-499 889 0
-499 496 0
500 -740 -746 0
-500 740 0
-500 746 0
501 -500 -7 0
-501 500 0
-501 7 0
502 -890 -499 0
-502 890 0
-502 499 0
503 -706 -731 0
-503 706 0
-503 731 0
504 -503 -703 0
-504 503 0
-504 703 0
505 -891 -502 0
-505 891 0
-505 502 0
506 -750 -32 0
-506 750 0
-506 32 0
507 -506 -29 0
-507 506 0
-507 29 0
508 -892 -505 0
-508 892 0
-508 505 0
509 -11 -10 0
-509 11 0
-509 10 0
510 -509 -7 0
-510 509 0
-510 7 0
511 -893 -508 0
-511 893 0
-511 508 0
512 -38 -723 0
-512 38 0
-512 723 0
513 -512 -894 0
-513 512 0
-513 894 0
514 -895 -511 0
-514 895 0
-514 511 0
515 -74 -760 0
-515 74 0
-515 760 0
516 -896 -514 0
-516 896 0
-516 514 0
517 -696 -690 0
-517 696 0
-517 690 0
518 -517 -26 0
-518 517 0
-518 26 0
519 -897 -516 0
-519 897 0
-519 516 0
520 -368 -30 0
-520 368 0
-520 30 0
521 -898 -519 0
-521 898 0
-521 519 0
522 -35 -18 0
-522 35 0
-522 18 0
523 -522 -30 0
-523 522 0
-523 30 0
524 -899 -521 0
-524 899 0
-524 521 0
525 -708 -17 0
-525 708 0
-525 17 0
526 -525 -45 0
-526 525 0
-526 45 0
527 -900 -524 0
-527 900 0
-527 524 0
528 -717 -745 0
-528 717 0
-528 745 0
529 -528 -31 0
-529 528 0
-529 31 0
530 -901 -527 0
-530 901 0
-530 527 0
531 -33 -29 0
-531 33 0
-531 29 0
532 -531 -9 0
-532 531 0
-532 9 0
533 -902 -530 0
-533 902 0
-533 530 0
534 -730 -690 0
-534 730 0
-534 690 0
535 -534 -33 0
-535 534 0
-535 33 0
536 -903 -533 0
-536 903 0
-536 533 0
537 -750 -699 0
-537 750 0
-537 699 0
538 -537 -24 0
-538 537 0
-538 24 0
539 -904 -536 0
-539 904 0
-539 536 0
540 -38 -23 0
-540 38 0
-540 23 0
541 -540 -793 0
-541 540 0
-541 793 0
542 -905 -539 0
-542 905 0
-542 539 0
543 -217 -38 0
-543 217 0
-543 38 0
544 -906 -542 0
-544 906 0
-544 542 0
545 -740 -701 0
-545 740 0
-545 701 0
546 -545 -731 0
-546 545 0
-546 731 0
547 -907 -544 0
-547 907 0
-547 544 0
548 -722 -15 0
-548 722 0
-548 15 0
549 -548 -724 0
-549 548 0
-549 724 0
550 -908 -547 0
-550 908 0
-550 547 0
551 -823 -742 0
-551 823 0
-551 742 0
552 -551 -740 0
-552 551 0
-552 740 0
553 -909 -550 0
-553 909 0
-553 550 0
554 -32 -717 0
-554 32 0
-554 717 0
555 -554 -734 0
-555 554 0
-555 734 0
556 -910 -553 0
-556 910 0
-556 553 0
557 -27 -26 0
-557 27 0
-557 26 0
558 -557 -30 0
-558 557 0
-558 30 0
559 -911 -556 0
-559 911 0
-559 556 0
560 -798 -7 0
-560 798 0
-560 7 0
561 -560 -757 0
-561 560 0
-561 757 0
562 -912 -559 0
-562 912 0
-562 559 0
563 -734 -818 0
-563 734 0
-563 818 0
564 -563 -18 0
-564 563 0
-564 18 0
565 -913 -562 0
-565 913 0
-565 562 0
566 -449 -724 0
-566 449 0
-566 724 0
567 -914 -565 0
-567 914 0
-567 565 0
568 -49 -789 0
-568 49 0
-568 789 0
569 -568 -757 0
-569 568 0
-569 757 0
570 -915 -567 0
-570 915 0
-570 567 0
571 -16 -11 0
-571 16 0
-571 11 0
572 -571 -24 0
-572 571 0
-572 24 0
573 -916 -570 0
-573 916 0
-573 570 0
574 -726 -701 0
-574 726 0
-574 701 0
575 -574 -16 0
-575 574 0
-575 16 0
576 -917 -573 0
-576 917 0
-576 573 0
577 -35 -21 0
-577 35 0
-577 21 0
578 -577 -3 0
-578 577 0
-578 3 0
579 -918 -576 0
-579 918 0
-579 576 0
580 -37 -703 0
-580 37 0
-580 703 0
581 -580 -757 0
-581 580 0
-581 757 0
582 -919 -579 0
-582 919 0
-582 579 0
583 -32 -25 0
-583 32 0
-583 25 0
584 -583 -821 0
-584 583 0
-584 821 0
585 -920 -582 0
-585 920 0
-585 582 0
586 -49 -746 0
-586 49 0
-586 746 0
587 -586 -760 0
-587 586 0
-587 760 0
588 -921 -585 0
-588 921 0
-588 585 0
589 -723 -16 0
-589 723 0
-589 16 0
590 -589 -18 0
-590 589 0
-590 18 0
591 -922 -588 0
-591 922 0
-591 588 0
592 -21 -699 0
-592 21 0
-592 699 0
593 -592 -20 0
-593 592 0
-593 20 0
594 -923 -591 0
-594 923 0
-594 591 0
595 -470 -727 0
-595 470 0
-595 727 0
596 -924 -594 0
-596 924 0
-596 594 0
597 -722 -32 0
-597 722 0
-597 32 0
598 -597 -40 0
-598 597 0
-598 40 0
599 -925 -596 0
-599 925 0
-599 596 0
600 -717 -696 0
-600 717 0
-600 696 0
601 -600 -693 0
-601 600 0
-601 693 0
602 -926 -599 0
-602 926 0
-602 599 0
603 -574 -20 0
-603 574 0
-603 20 0
604 -927 -602 0
-604 927 0
-604 602 0
605 -755 -24 0
-605 755 0
-605 24 0
606 -605 -798 0
-606 605 0
-606 798 0
607 -928 -604 0
-607 928 0
-607 604 0
608 -35 -713 0
-608 35 0
-608 713 0
609 -608 -13 0
-609 608 0
-609 13 0
610 -929 -607 0
-610 929 0
-610 607 0
611 -48 -18 0
-611 48 0
-611 18 0
612 -611 -47 0
-612 611 0
-612 47 0
613 -930 -610 0
-613 930 0
-613 610 0
614 -37 -36 0
-614 37 0
-614 36 0
615 -614 -23 0
-615 614 0
-615 23 0
616 -931 -613 0
-616 931 0
-616 613 0
617 -696 -694 0
-617 696 0
-617 694 0
618 -617 -757 0
-618 617 0
-618 757 0
619 -932 -616 0
-619 932 0
-619 616 0
620 -742 -723 0
-620 742 0
-620 723 0
621 -620 -851 0
-621 620 0
-621 851 0
622 -933 -619 0
-622 933 0
-622 619 0
623 -708 -706 0
-623 708 0
-623 706 0
624 -623 -894 0
-624 623 0
-624 894 0
625 -934 -622 0
-625 934 0
-625 622 0
626 -44 -689 0
-626 44 0
-626 689 0
627 -626 -708 0
-627 626 0
-627 708 0
628 -935 -625 0
-628 935 0
-628 625 0
629 -894 -793 0
-629 894 0
-629 793 0
630 -629 -694 0
-630 629 0
-630 694 0
631 -936 -628 0
-631 936 0
-631 628 0
632 -44 -769 0
-632 44 0
-632 769 0
633 -632 -49 0
-633 632 0
-633 49 0
634 -937 -631 0
-634 937 0
-634 631 0
635 -46 -703 0
-635 46 0
-635 703 0
636 -635 -39 0
-636 635 0
-636 39 0
637 -938 -634 0
-637 938 0
-637 634 0
638 -45 -13 0
-638 45 0
-638 13 0
639 -638 -703 0
-639 638 0
-639 703 0
640 -939 -637 0
-640 939 0
-640 637 0
641 -823 -689 0
-641 823 0
-641 689 0
642 -641 -14 0
-642 641 0
-642 14 0
643 -940 -640 0
-643 940 0
-643 640 0
644 -50 -35 0
-644 50 0
-644 35 0
645 -644 -42 0
-645 644 0
-645 42 0
646 -941 -643 0
-646 941 0
-646 643 0
647 -742 -21 0
-647 742 0
-647 21 0
648 -647 -696 0
-648 647 0
-648 696 0
649 -942 -646 0
-649 942 0
-649 646 0
650 -33 -23 0
-650 33 0
-650 23 0
651 -650 -40 0
-651 650 0
-651 40 0
652 -943 -649 0
-652 943 0
-652 649 0
653 -7 -1 0
-653 7 0
-653 1 0
654 -653 -694 0
-654 653 0
-654 694 0
655 -944 -652 0
-655 944 0
-655 652 0
656 -823 -42 0
-656 823 0
-656 42 0
657 -656 -30 0
-657 656 0
-657 30 0
658 -945 -655 0
-658 945 0
-658 655 0
659 -717 -693 0
-659 717 0
-659 693 0
660 -659 -18 0
-660 659 0
-660 18 0
661 -946 -658 0
-661 946 0
-661 658 0
662 -719 -29 0
-662 719 0
-662 29 0
663 -662 -9 0
-663 662 0
-663 9 0
664 -947 -661 0
-664 947 0
-664 661 0
665 -789 -769 0
-665 789 0
-665 769 0
666 -665 -715 0
-666 665 0
-666 715 0
667 -948 -664 0
-667 948 0
-667 664 0
668 -44 -789 0
-668 44 0
-668 789 0
669 -668 -724 0
-669 668 0
-669 724 0
670 -949 -667 0
-670 949 0
-670 667 0
671 -696 -2 0
-671 696 0
-671 2 0
672 -671 -737 0
-672 671 0
-672 737 0
673 -950 -670 0
-673 950 0
-673 670 0
674 -49 -760 0
-674 49 0
-674 760 0
675 -674 -789 0
-675 674 0
-675 789 0
676 -951 -673 0
-676 951 0
-676 673 0
677 -734 -3 0
-677 734 0
-677 3 0
678 -677 -34 0
-678 677 0
-678 34 0
679 -952 -676 0
-679 952 0
-679 676 0
680 -696 -793 0
-680 696 0
-680 793 0
681 -680 -724 0
-681 680 0
-681 724 0
682 -953 -679 0
-682 953 0
-682 679 0
683 -25 -778 0
-683 25 0
-683 778 0
684 -683 -818 0
-684 683 0
-684 818 0
685 -954 -682 0
-685 954 0
-685 682 0
686 -49 -7 0
-686 49 0
-686 7 0
687 -686 -789 0
-687 686 0
-687 789 0
688 -955 -685 0
-688 955 0
-688 685 0
-689 -2 0
689 2 0
-690 -4 0
690 4 0
-691 -54 0
691 54 0
-692 -52 0
692 52 0
-693 -8 0
693 8 0
-694 -9 0
694 9 0
-695 -57 0
695 57 0
-696 -10 0
696 10 0
-697 -60 0
697 60 0
-698 -12 0
698 12 0
-699 -13 0
699 13 0
-700 -63 0
700 63 0
-701 -15 0
701 15 0
-702 -66 0
702 66 0
-703 -18 0
703 18 0
-704 -19 0
704 19 0
-705 -69 0
705 69 0
-706 -14 0
706 14 0
-707 -72 0
707 72 0
-708 -22 0
708 22 0
-709 -75 0
709 75 0
-710 -78 0
710 78 0
-711 -81 0
711 81 0
-712 -84 0
712 84 0
-713 -27 0
713 27 0
-714 -87 0
714 87 0
-715 -29 0
715 29 0
-716 -90 0
716 90 0
-717 -21 0
717 21 0
-718 -93 0
718 93 0
-719 -31 0
719 31 0
-720 -96 0
720 96 0
-721 -99 0
721 99 0
-722 -33 0
722 33 0
-723 -32 0
723 32 0
-724 -34 0
724 34 0
-725 -102 0
725 102 0
-726 -35 0
726 35 0
-727 -30 0
727 30 0
-728 -105 0
728 105 0
-729 -108 0
729 108 0
-730 -11 0
730 11 0
-731 -7 0
731 7 0
-732 -111 0
732 111 0
-733 -114 0
733 114 0
-734 -38 0
734 38 0
-735 -117 0
735 117 0
-736 -119 0
736 119 0
-737 -24 0
737 24 0
-738 -122 0
738 122 0
-739 -124 0
739 124 0
-740 -42 0
740 42 0
-741 -127 0
741 127 0
-742 -43 0
742 43 0
-743 -130 0
743 130 0
-744 -133 0
744 133 0
-745 -1 0
745 1 0
-746 -28 0
746 28 0
-747 -136 0
747 136 0
-748 -138 0
748 138 0
-749 -140 0
749 140 0
-750 -37 0
750 37 0
-751 -143 0
751 143 0
-752 -5 0
752 5 0
-753 -146 0
753 146 0
-754 -149 0
754 149 0
-755 -45 0
755 45 0
-756 -152 0
756 152 0
-757 -47 0
757 47 0
-758 -155 0
758 155 0
-759 -158 0
759 158 0
-760 -16 0
760 16 0
-761 -161 0
761 161 0
-762 -164 0
762 164 0
-763 -167 0
763 167 0
-764 -170 0
764 170 0
-765 -48 0
765 48 0
-766 -173 0
766 173 0
-767 -20 0
767 20 0
-768 -176 0
768 176 0
-769 -3 0
769 3 0
-770 -179 0
770 179 0
-771 -49 0
771 49 0
-772 -182 0
772 182 0
-773 -185 0
773 185 0
-774 -188 0
774 188 0
-775 -191 0
775 191 0
-776 -194 0
776 194 0
-777 -197 0
777 197 0
-778 -17 0
778 17 0
-779 -200 0
779 200 0
-780 -203 0
780 203 0
-781 -206 0
781 206 0
-782 -209 0
782 209 0
-783 -212 0
783 212 0
-784 -215 0
784 215 0
-785 -218 0
785 218 0
-786 -221 0
786 221 0
-787 -40 0
787 40 0
-788 -224 0
788 224 0
-789 -41 0
789 41 0
-790 -227 0
790 227 0
-791 -230 0
791 230 0
-792 -233 0
792 233 0
-793 -6 0
793 6 0
-794 -236 0
794 236 0
-795 -239 0
795 239 0
-796 -242 0
796 242 0
-797 -245 0
797 245 0
-798 -39 0
798 39 0
-799 -248 0
799 248 0
-800 -251 0
800 251 0
-801 -254 0
801 254 0
-802 -257 0
802 257 0
-803 -259 0
803 259 0
-804 -262 0
804 262 0
-805 -46 0
805 46 0
-806 -265 0
806 265 0
-807 -268 0
807 268 0
-808 -271 0
808 271 0
-809 -274 0
809 274 0
-810 -277 0
810 277 0
-811 -279 0
811 279 0
-812 -282 0
812 282 0
-813 -285 0
813 285 0
-814 -44 0
814 44 0
-815 -288 0
815 288 0
-816 -291 0
816 291 0
-817 -294 0
817 294 0
-818 -26 0
818 26 0
-819 -297 0
819 297 0
-820 -300 0
820 300 0
-821 -23 0
821 23 0
-822 -303 0
822 303 0
-823 -50 0
823 50 0
-824 -306 0
824 306 0
-825 -309 0
825 309 0
-826 -312 0
826 312 0
-827 -315 0
827 315 0
-828 -318 0
828 318 0
-829 -321 0
829 321 0
-830 -324 0
830 324 0
-831 -327 0
831 327 0
-832 -330 0
832 330 0
-833 -333 0
833 333 0
-834 -336 0
834 336 0
-835 -339 0
835 339 0
-836 -342 0
836 342 0
-837 -345 0
837 345 0
-838 -348 0
838 348 0
-839 -351 0
839 351 0
-840 -354 0
840 354 0
-841 -357 0
841 357 0
-842 -360 0
842 360 0
-843 -363 0
843 363 0
-844 -366 0
844 366 0
-845 -369 0
845 369 0
-846 -372 0
846 372 0
-847 -375 0
847 375 0
-848 -378 0
848 378 0
-849 -381 0
849 381 0
-850 -384 0
850 384 0
-851 -25 0
851 25 0
-852 -387 0
852 387 0
-853 -390 0
853 390 0
-854 -393 0
854 393 0
-855 -396 0
855 396 0
-856 -399 0
856 399 0
-857 -402 0
857 402 0
-858 -405 0
858 405 0
-859 -408 0
859 408 0
-860 -411 0
860 411 0
-861 -414 0
861 414 0
-862 -417 0
862 417 0
-863 -420 0
863 420 0
-864 -423 0
864 423 0
-865 -426 0
865 426 0
-866 -429 0
866 429 0
-867 -432 0
867 432 0
-868 -435 0
868 435 0
-869 -438 0
869 438 0
-870 -441 0
870 441 0
-871 -444 0
871 444 0
-872 -447 0
872 447 0
-873 -450 0
873 450 0
-874 -453 0
874 453 0
-875 -456 0
875 456 0
-876 -459 0
876 459 0
-877 -462 0
877 462 0
-878 -465 0
878 465 0
-879 -468 0
879 468 0
-880 -471 0
880 471 0
-881 -474 0
881 474 0
-882 -477 0
882 477 0
-883 -480 0
883 480 0
-884 -483 0
884 483 0
-885 -486 0
885 486 0
-886 -489 0
886 489 0
-887 -492 0
887 492 0
-888 -495 0
888 495 0
-889 -498 0
889 498 0
-890 -501 0
890 501 0
-891 -504 0
891 504 0
-892 -507 0
892 507 0
-893 -510 0
893 510 0
-894 -36 0
894 36 0
-895 -513 0
895 513 0
-896 -515 0
896 515 0
-897 -518 0
897 518 0
-898 -520 0
898 520 0
-899 -523 0
899 523 0
-900 -526 0
900 526 0
-901 -529 0
901 529 0
-902 -532 0
902 532 0
-903 -535 0
903 535 0
-904 -538 0
904 538 0
-905 -541 0
905 541 0
-906 -543 0
906 543 0
-907 -546 0
907 546 0
-908 -549 0
908 549 0
-909 -552 0
909 552 0
-910 -555 0
910 555 0
-911 -558 0
911 558 0
-912 -561 0
912 561 0
-913 -564 0
913 564 0
-914 -566 0
914 566 0
-915 -569 0
915 569 0
-916 -572 0
916 572 0
-917 -575 0
917 575 0
-918 -578 0
918 578 0
-919 -581 0
919 581 0
-920 -584 0
920 584 0
-921 -587 0
921 587 0
-922 -590 0
922 590 0
-923 -593 0
923 593 0
-924 -595 0
924 595 0
-925 -598 0
925 598 0
-926 -601 0
926 601 0
-927 -603 0
927 603 0
-928 -606 0
928 606 0
-929 -609 0
929 609 0
-930 -612 0
930 612 0
-931 -615 0
931 615 0
-932 -618 0
932 618 0
-933 -621 0
933 621 0
-934 -624 0
934 624 0
-935 -627 0
935 627 0
-936 -630 0
936 630 0
-937 -633 0
937 633 0
-938 -636 0
938 636 0
-939 -639 0
939 639 0
-940 -642 0
940 642 0
-941 -645 0
941 645 0
-942 -648 0
942 648 0
-943 -651 0
943 651 0
-944 -654 0
944 654 0
-945 -657 0
945 657 0
-946 -660 0
946 660 0
-947 -663 0
947 663 0
-948 -666 0
948 666 0
-949 -669 0
949 669 0
-950 -672 0
950 672 0
-951 -675 0
951 675 0
-952 -678 0
952 678 0
-953 -681 0
953 681 0
-954 -684 0
954 684 0
-955 -687 0
955 687 0
688 0
